
Starting CP-SAT solver v9.15.6755
Parameters: random_seed: 2026073352 max_time_in_seconds: 2500 log_search_progress: true cp_model_presolve: true linearization_level: 2 num_search_workers: 4 cp_model_probing_level: 2 symmetry_level: 2

Initial satisfaction model '': (model_fingerprint: 0xf2320e3ab42caa20)
#Variables: 724 (604 primary variables)
  - 724 Booleans in [0,1]
#kBoolAnd: 110 (#enforced: 110) (#literals: 330)
#kBoolOr: 110 (#enforced: 110) (#literals: 220)
#kExactlyOne: 87 (#literals: 261)
#kLinear1: 36 (#enforced: 6)
#kLinear2: 336 (#enforced: 336) (#complex_domain: 110)
#kLinear3: 1'600 (#enforced: 6)
#kLinearN: 1'132 (#enforced: 243) (#terms: 9'111)

Starting presolve at 0.00s
  7.72e-04s  0.00e+00d  [DetectDominanceRelations] 
  8.98e-03s  0.00e+00d  [PresolveToFixPoint] #num_loops=3 #num_dual_strengthening=1 
  3.79e-05s  0.00e+00d  [ExtractEncodingFromLinear] #potential_supersets=99 
  3.52e-04s  0.00e+00d  [DetectDuplicateColumns] 
  1.05e-04s  0.00e+00d  [DetectDuplicateConstraints] #duplicates=9 
[Symmetry] Graph for symmetry has 4'852 nodes and 15'594 arcs.
[Symmetry] Symmetry computation done. time: 0.00130817 dtime: 0.00180483
[SAT presolve] num removable Booleans: 220 / 620
[SAT presolve] num trivial clauses: 0
[SAT presolve] [0s] clauses:2'694 literals:7'336 vars:505 one_side_vars:65 simple_definition:1 singleton_clauses:0
[SAT presolve] [0.000235769s] clauses:2'693 literals:7'329 vars:505 one_side_vars:65 simple_definition:1 singleton_clauses:0
[SAT presolve] [0.000740735s] clauses:2'211 literals:6'552 vars:376 one_side_vars:71 simple_definition:69 singleton_clauses:0
  1.20e-04s  0.00e+00d  [DetectDuplicateConstraintsWithDifferentEnforcements] #without_enforcements=3 
  5.51e-03s  2.26e-03d  [Probe] #probed=1'286 #fixed_bools=12 #equiv=8 #new_binary_clauses=1'085 
  5.04e-04s  3.01e-04d  [MaxClique] Merged 581 constraints with 1'310 literals into 515 constraints with 1'201 literals
  9.32e-04s  0.00e+00d  [DetectDominanceRelations] 
  3.24e-03s  0.00e+00d  [PresolveToFixPoint] #num_loops=1 #num_dual_strengthening=1 
  1.23e-03s  0.00e+00d  [ProcessAtMostOneAndLinear] 
  1.02e-04s  0.00e+00d  [DetectDuplicateConstraints] #duplicates=5 
  8.22e-05s  0.00e+00d  [DetectDuplicateConstraintsWithDifferentEnforcements] 
  3.72e-03s  1.05e-04d  [DetectDominatedLinearConstraints] #relevant_constraints=826 #num_inclusions=519 #num_redundant=7 
  1.50e-04s  0.00e+00d  [DetectDifferentVariables] 
  8.13e-04s  8.05e-05d  [ProcessSetPPC] #relevant_constraints=2'967 #num_inclusions=69 
  3.25e-04s  3.35e-05d  [TransformClausesToExactlyOne] #num_amos=501 #num_clauses=1'653 #num_checked=1'653 
  3.89e-05s  0.00e+00d  [DetectEncodedComplexDomains] 
  3.23e-05s  1.00e-07d  [FindAlmostIdenticalLinearConstraints] #num_tested_pairs=1 
  9.75e-04s  1.33e-03d  [FindBigAtMostOneAndLinearOverlap] 
  1.55e-03s  1.19e-03d  [FindBigVerticalLinearOverlap] #blocks=2 #saved_nz=68 
  3.88e-04s  6.38e-04d  [FindBigHorizontalLinearOverlap] #linears=458 
  3.47e-04s  2.69e-05d  [MergeClauses] #num_collisions=27 #num_merges=27 #num_saved_literals=135 
  9.04e-04s  0.00e+00d  [DetectDominanceRelations] 
  3.12e-03s  0.00e+00d  [PresolveToFixPoint] #num_loops=2 #num_dual_strengthening=1 
  8.85e-04s  0.00e+00d  [DetectDominanceRelations] 
  3.04e-03s  0.00e+00d  [PresolveToFixPoint] #num_loops=1 #num_dual_strengthening=1 
  2.38e-04s  0.00e+00d  [DetectDuplicateColumns] 
  8.69e-05s  0.00e+00d  [DetectDuplicateConstraints] 
[Symmetry] Graph for symmetry has 4'268 nodes and 13'428 arcs.
[Symmetry] Symmetry computation done. time: 0.000959398 dtime: 0.00129433
[SAT presolve] num removable Booleans: 90 / 470
[SAT presolve] num trivial clauses: 0
[SAT presolve] [0s] clauses:2'096 literals:6'272 vars:443 one_side_vars:145 simple_definition:84 singleton_clauses:0
[SAT presolve] [0.000246024s] clauses:2'096 literals:6'088 vars:443 one_side_vars:191 simple_definition:68 singleton_clauses:0
[SAT presolve] [0.000337729s] clauses:2'086 literals:6'078 vars:438 one_side_vars:194 simple_definition:53 singleton_clauses:0
  1.52e-04s  0.00e+00d  [DetectDuplicateConstraintsWithDifferentEnforcements] #without_enforcements=1 
  5.69e-03s  1.90e-03d  [Probe] #probed=1'274 #new_binary_clauses=650 
  4.25e-04s  3.08e-04d  [MaxClique] Merged 498 constraints with 1'101 literals into 490 constraints with 1'099 literals
  9.08e-04s  0.00e+00d  [DetectDominanceRelations] 
  3.13e-03s  0.00e+00d  [PresolveToFixPoint] #num_loops=1 #num_dual_strengthening=1 
  1.13e-03s  0.00e+00d  [ProcessAtMostOneAndLinear] 
  1.34e-04s  0.00e+00d  [DetectDuplicateConstraints] 
  9.47e-05s  0.00e+00d  [DetectDuplicateConstraintsWithDifferentEnforcements] 
  2.22e-03s  7.67e-05d  [DetectDominatedLinearConstraints] #relevant_constraints=822 #num_inclusions=405 
  1.25e-04s  0.00e+00d  [DetectDifferentVariables] 
  7.75e-04s  7.43e-05d  [ProcessSetPPC] #relevant_constraints=3'001 #num_inclusions=90 
  2.94e-04s  3.26e-05d  [TransformClausesToExactlyOne] #num_amos=488 #num_clauses=1'645 #num_checked=1'645 
  5.70e-05s  0.00e+00d  [DetectEncodedComplexDomains] 
  3.52e-05s  1.00e-07d  [FindAlmostIdenticalLinearConstraints] #num_tested_pairs=1 
  9.24e-04s  1.23e-03d  [FindBigAtMostOneAndLinearOverlap] 
  1.41e-03s  1.05e-03d  [FindBigVerticalLinearOverlap] #blocks=3 #saved_nz=99 
  3.41e-04s  5.73e-04d  [FindBigHorizontalLinearOverlap] #linears=455 
  3.60e-04s  2.59e-05d  [MergeClauses] #num_collisions=77 #num_merges=77 #num_saved_literals=233 
  9.19e-04s  0.00e+00d  [DetectDominanceRelations] 
  3.19e-03s  0.00e+00d  [PresolveToFixPoint] #num_loops=2 #num_dual_strengthening=1 
  9.06e-04s  0.00e+00d  [DetectDominanceRelations] 
  3.07e-03s  0.00e+00d  [PresolveToFixPoint] #num_loops=1 #num_dual_strengthening=1 
  2.05e-04s  0.00e+00d  [DetectDuplicateColumns] 
  9.23e-05s  0.00e+00d  [DetectDuplicateConstraints] 
[Symmetry] Graph for symmetry has 4'211 nodes and 12'999 arcs.
[Symmetry] Symmetry computation done. time: 0.000944836 dtime: 0.00129643
[SAT presolve] num removable Booleans: 85 / 465
[SAT presolve] num trivial clauses: 0
[SAT presolve] [0s] clauses:2'075 literals:6'047 vars:438 one_side_vars:196 simple_definition:53 singleton_clauses:0
[SAT presolve] [0.000207837s] clauses:2'075 literals:6'047 vars:438 one_side_vars:196 simple_definition:53 singleton_clauses:0
[SAT presolve] [0.000276749s] clauses:2'075 literals:6'047 vars:438 one_side_vars:196 simple_definition:53 singleton_clauses:0
  1.53e-04s  0.00e+00d  [DetectDuplicateConstraintsWithDifferentEnforcements] 
  5.55e-03s  1.89e-03d  [Probe] #probed=1'274 #new_binary_clauses=649 
  4.48e-04s  2.99e-04d  [MaxClique] Merged 488 constraints with 1'081 literals into 487 constraints with 1'080 literals
  9.24e-04s  0.00e+00d  [DetectDominanceRelations] 
  3.11e-03s  0.00e+00d  [PresolveToFixPoint] #num_loops=1 #num_dual_strengthening=1 
  1.12e-03s  0.00e+00d  [ProcessAtMostOneAndLinear] 
  1.09e-04s  0.00e+00d  [DetectDuplicateConstraints] 
  9.05e-05s  0.00e+00d  [DetectDuplicateConstraintsWithDifferentEnforcements] 
  8.66e-04s  5.49e-05d  [DetectDominatedLinearConstraints] #relevant_constraints=825 #num_inclusions=285 
  1.30e-04s  0.00e+00d  [DetectDifferentVariables] 
  7.68e-04s  7.06e-05d  [ProcessSetPPC] #relevant_constraints=2'998 #num_inclusions=73 
  3.22e-04s  3.26e-05d  [TransformClausesToExactlyOne] #num_amos=487 #num_clauses=1'645 #num_checked=1'645 
  5.24e-05s  0.00e+00d  [DetectEncodedComplexDomains] 
  4.90e-05s  9.00e-08d  [FindAlmostIdenticalLinearConstraints] #num_tested_pairs=1 
  8.92e-04s  1.10e-03d  [FindBigAtMostOneAndLinearOverlap] 
  1.34e-03s  9.81e-04d  [FindBigVerticalLinearOverlap] #blocks=2 #saved_nz=203 
  3.50e-04s  5.73e-04d  [FindBigHorizontalLinearOverlap] #linears=456 
  3.56e-04s  2.59e-05d  [MergeClauses] #num_collisions=77 #num_merges=77 #num_saved_literals=233 
  9.34e-04s  0.00e+00d  [DetectDominanceRelations] 
  3.15e-03s  0.00e+00d  [PresolveToFixPoint] #num_loops=2 #num_dual_strengthening=1 
  2.06e-05s  0.00e+00d  [MergeNoOverlap] 
  1.98e-05s  0.00e+00d  [MergeNoOverlap2D] 

Presolve summary:
  - 35 affine relations were detected.
  - rule 'TODO dual: only one blocking constraint?' was applied 856 times.
  - rule 'TODO dual: tighten at most one' was applied 8 times.
  - rule 'TODO linear inclusion: superset is equality' was applied 296 times.
  - rule 'affine: new relation' was applied 35 times.
  - rule 'at_most_one: removed literals' was applied 71 times.
  - rule 'at_most_one: size one' was applied 70 times.
  - rule 'at_most_one: transformed into max clique' was applied 3 times.
  - rule 'bool_or: implications' was applied 51 times.
  - rule 'bool_or: only one literal' was applied 12 times.
  - rule 'bool_or: removed enforcement literal' was applied 557 times.
  - rule 'deductions: 778 stored' was applied 1 time.
  - rule 'duplicate: merged rhs of linear constraint' was applied 13 times.
  - rule 'duplicate: removed constraint' was applied 14 times.
  - rule 'duplicate: removed enforced constraint' was applied 4 times.
  - rule 'enforcement: false literal' was applied 38 times.
  - rule 'enforcement: true literal' was applied 12 times.
  - rule 'exactly_one: removed literals' was applied 30 times.
  - rule 'exactly_one: satisfied' was applied 7 times.
  - rule 'exactly_one: singleton' was applied 3 times.
  - rule 'exactly_one: size two' was applied 27 times.
  - rule 'exactly_one: x and not(x)' was applied 6 times.
  - rule 'incompatible linear: add implication' was applied 123 times.
  - rule 'linear + amo: empty after processing' was applied 5 times.
  - rule 'linear + amo: extracted enforcement literal' was applied 46 times.
  - rule 'linear + amo: trivial linear constraint' was applied 1 time.
  - rule 'linear inclusion: redundant containing constraint' was applied 3 times.
  - rule 'linear inclusion: redundant included constraint' was applied 3 times.
  - rule 'linear inclusion: sparsify superset' was applied 1 time.
  - rule 'linear matrix: common vertical rectangle' was applied 7 times.
  - rule 'linear1: always true' was applied 1 time.
  - rule 'linear1: x in domain' was applied 30 times.
  - rule 'linear2: convert ax + by != cte to clauses' was applied 244 times.
  - rule 'linear2: convert implied ax + by == cte to clauses' was applied 114 times.
  - rule 'linear2: implied ax + by = cte has only one solution' was applied 8 times.
  - rule 'linear: always true' was applied 429 times.
  - rule 'linear: coefficient strengthening by increasing it' was applied 2 times.
  - rule 'linear: empty' was applied 1 time.
  - rule 'linear: extracted at most one (max)' was applied 1 time.
  - rule 'linear: fixed or dup variables' was applied 879 times.
  - rule 'linear: negative clause' was applied 1'281 times.
  - rule 'linear: negative reified and' was applied 74 times.
  - rule 'linear: never in domain' was applied 5 times.
  - rule 'linear: positive at most one' was applied 48 times.
  - rule 'linear: positive equal one' was applied 1 time.
  - rule 'linear: reduced variable domains' was applied 8 times.
  - rule 'linear: remapped using affine relations' was applied 22 times.
  - rule 'presolve: 87 unused variables removed.' was applied 1 time.
  - rule 'presolve: iteration' was applied 3 times.
  - rule 'probing: bool_or reduced to implication' was applied 27 times.
  - rule 'probing: simplified clauses' was applied 17 times.
  - rule 'setppc: bool_or in at_most_one' was applied 6 times.
  - rule 'setppc: exactly_one included in linear' was applied 1 time.
  - rule 'setppc: reduced linear coefficients' was applied 1 time.
  - rule 'setppc: removed dominated constraints' was applied 86 times.

Presolved satisfaction model '': (model_fingerprint: 0x8eb4fd7ef8da04b5)
#Variables: 472 (404 primary variables)
  - 465 Booleans in [0,1]
  - 6 in [0,2]
  - 1 in [0,8]
#kAtMostOne: 59 (#literals: 224)
#kBoolAnd: 259 (#enforced: 259) (#literals: 687)
#kBoolAndClauses: 77 (#enforced: 77 #multi: 77) (#literals: 387)
#kBoolOr: 1'491 (#literals: 4'567)
#kExactlyOne: 50 (#literals: 197)
#kLinear3: 9 (#enforced: 6)
#kLinearN: 817 (#enforced: 120) (#terms: 5'429)
[Symmetry] Graph for symmetry has 3'957 nodes and 12'795 arcs.
[Symmetry] Symmetry computation done. time: 0.000922102 dtime: 0.00126411

Preloading model.
#Model   0.10s var:472/472 constraints:2762/2762

Starting search at 0.10s with 4 workers.
3 full problem subsolvers: [default_lp, max_lp, no_lp]
1 first solution subsolver: [fj]
2 interleaved subsolvers: [feasibility_pump, rins/rens]
2 helper subsolvers: [neighborhood_helper, synchronization_agent]

#Model   3.19s var:471/472 constraints:2760/2762
#Model  12.25s var:470/472 constraints:2758/2762
#Model  55.20s var:469/472 constraints:2741/2762
#Model 1866.60s var:468/472 constraints:2724/2762

Task timing                   n [     min,      max]      avg      dev     time         n [     min,      max]      avg      dev    dtime
        'default_lp':         1 [  41.66m,   41.66m]   41.66m   0.00ns   41.66m         2 [  2.00ms,   40.51m]   20.26m   20.26m   40.51m
  'feasibility_pump':     12392 [ 22.91us, 147.71ms]   1.62ms   1.35ms   20.08s     12388 [279.86us, 131.46ms] 293.25us   1.18ms    3.63s
                'fj':      9153 [ 86.40ms, 208.02ms] 135.37ms   8.56ms   20.65m      9153 [ 66.48ms, 100.16ms] 100.01ms 350.85us   15.26m
            'max_lp':         1 [  41.66m,   41.66m]   41.66m   0.00ns   41.66m         2 [ 96.60ms,   52.93m]   26.47m   26.47m   52.93m
             'no_lp':         1 [  41.66m,   41.66m]   41.66m   0.00ns   41.66m         2 [  1.73ms,    1.35h]   40.42m   40.42m    1.35h
         'rins/rens':     11453 [ 21.53ms, 182.99ms] 108.20ms  43.11ms   20.65m     11450 [229.46us, 100.33ms]  66.77ms  38.25ms   12.74m

Search stats     Bools   Conflicts    Branches  Restarts  BacktrackToRoot   Backtrack     BoolPropag  IntegerPropag
  'default_lp':    465     214'618   8'386'301     1'332        1'302'262   1'839'745     84'662'973    104'909'868
      'max_lp':    465     140'515  10'806'343       791        1'651'168   2'170'981    108'022'299    138'247'921
       'no_lp':    465  23'230'878  31'291'254    79'860          589'387  23'727'974  1'787'801'403    494'941'631

SAT formula      Fixed  Equiv  Total  VarLeft  BinaryClauses  PermanentClauses  TemporaryClauses
  'default_lp':      4      2    465      459          2'522            47'165            11'192
      'max_lp':      4      2    465      459          2'522            47'033             9'923
       'no_lp':      4      2    465      459          2'522           128'592            11'739

SAT stats        ClassicMinim   LitRemoved  LitRemovedBinary   LitLearned  LitForgotten   Subsumed
  'default_lp':       183'964    2'334'694         1'517'848    6'366'165     4'049'624     79'219
      'max_lp':       119'197    1'379'791           953'476    3'715'760     2'420'382     40'380
       'no_lp':    20'749'178  329'454'299       163'584'357  567'594'607   461'899'007  5'773'876

Vivification       Clauses   Decisions  LitTrue  Subsumed  LitRemoved  DecisionReused  Conflicts
  'default_lp':  1'348'637   7'833'942        2    12'735     138'420         360'933      1'249
      'max_lp':  1'672'554  10'262'333        0    14'086     152'497         400'317      1'216
       'no_lp':    427'832   3'680'874        0    29'163     370'151         108'603      1'178

Clause deletion    at_true  l_and_not(l)  to_binary  sub_conflict  sub_extra  sub_decisions  sub_eager  sub_vivify  sub_probing  sub_inpro  blocked  eliminated   forgotten    promoted   conflicts
    'default_lp':    1'261             0          4        77'773        558          2'447      1'446      12'735        1'041     11'453        0           0     108'324     417'306     214'618
        'max_lp':      839             2          3        39'890        321            796        490      14'086          989      5'005        0           0      81'854     291'651     140'515
         'no_lp':    2'654             0          5     5'677'133     38'247        207'545     96'743      29'163        3'248    104'548        0           0  16'938'404  52'357'383  23'230'878

Lp stats         Component  Iterations  AddedCuts  OPTIMAL  DUAL_F.  DUAL_U.
  'default_lp':          1  28'744'178     89'742  312'685        1  174'055
      'max_lp':          1  14'335'235     98'755   50'643  122'959   38'935

Lp dimension        Final dimension of first component
  'default_lp':    302 rows, 344 columns, 2998 entries
      'max_lp':  1502 rows, 472 columns, 32746 entries

Lp debug         CutPropag  CutEqPropag   Adjust  Overflow        Bad  BadScaling
  'default_lp':          0           33  174'054         0  2'856'052           0
      'max_lp':          0           13   38'930         0  2'957'010           0

Lp pool          Constraints  Updates  Simplif  Merged  Shortened  Split  Strengthened       Cuts/Call
  'default_lp':       10'530   18'913        0       0        457      0             0  89'742/148'314
      'max_lp':       12'845   31'810    1'717       3      1'788    353         1'749  98'755/192'438

Lp Cut            default_lp  max_lp
          CG_FF:       1'380      89
           CG_K:         684       6
          CG_KL:         676       4
           CG_R:       1'489      37
          CG_RB:          26       2
         CG_RBP:           3       -
         Clique:           -     153
             IB:          81      13
       MIR_1_FF:         695     899
        MIR_1_K:         163      59
       MIR_1_KL:         498      79
        MIR_1_R:         611     689
       MIR_1_RB:           1       2
      MIR_1_RBP:           -       1
      MIR_1_RLT:           -   8'662
       MIR_2_FF:         591   1'195
        MIR_2_K:         173     283
       MIR_2_KL:         306     151
        MIR_2_R:         743   1'283
       MIR_2_RB:          14       3
      MIR_2_RBP:           5       5
       MIR_3_FF:         288     341
        MIR_3_K:          53      73
       MIR_3_KL:          87      28
        MIR_3_R:         349     457
       MIR_3_RB:           6       4
      MIR_3_RBP:           6      11
       MIR_4_FF:          73     114
        MIR_4_K:          20      30
       MIR_4_KL:          30      10
        MIR_4_R:         261     330
       MIR_4_RB:           8       2
      MIR_4_RBP:           4       8
       MIR_5_FF:          21      36
        MIR_5_K:           3       9
       MIR_5_KL:           6       2
        MIR_5_R:         198     285
       MIR_5_RB:           5       1
      MIR_5_RBP:           3      10
       MIR_6_FF:          11      18
        MIR_6_K:           1       4
       MIR_6_KL:           2       -
        MIR_6_R:         139     302
       MIR_6_RB:           5       3
      MIR_6_RBP:           5       9
   ZERO_HALF_FF:         355     471
    ZERO_HALF_K:         102      33
   ZERO_HALF_KL:         107       4
    ZERO_HALF_R:      79'355  82'481
   ZERO_HALF_RB:          23       6
  ZERO_HALF_RBP:          77      58

LNS stats       Improv/Calls  Closed  Difficulty  TimeLimit
  'rins/rens':   11450/11450     50%    7.69e-01       0.10

LS stats                                    Batches  Restarts/Perturbs    LinMoves    GenMoves  CompoundMoves  Bactracks  WeightUpdates  ScoreComputed
                             'fj_restart':      414                138  10'921'814           0              0          0     10'626'271     19'093'511
                    'fj_restart_compound':      600                118           0   6'718'000        310'236  3'203'679         17'439    110'402'445
                'fj_restart_compound_obj':      366                119           0   4'008'067        268'996  1'869'261          8'629     67'071'155
            'fj_restart_compound_perturb':      328                112           0   3'540'346        248'281  1'645'755          7'569     60'193'625
        'fj_restart_compound_perturb_obj':      578                113           0   6'528'499        305'793  3'111'130         16'304    106'468'900
                       'fj_restart_decay':      858                122  26'176'814           0              0          0      1'116'761     22'595'670
              'fj_restart_decay_compound':      488                129           0   5'890'299        960'760  2'464'414          6'375     90'670'963
          'fj_restart_decay_compound_obj':      469                128           0   5'648'178        909'446  2'369'017          6'077     87'224'478
      'fj_restart_decay_compound_perturb':    1'011                143           0  12'796'218      2'056'998  5'369'247         12'921    188'660'117
  'fj_restart_decay_compound_perturb_obj':      686                118           0   8'540'363      1'377'976  3'580'897          8'896    127'870'077
                   'fj_restart_decay_obj':      796                130  24'261'011           0              0          0      1'037'317     20'984'363
               'fj_restart_decay_perturb':      389                138  11'844'153           0              0          0        506'814     10'237'610
           'fj_restart_decay_perturb_obj':      589                143  17'943'419           0              0          0        766'297     15'487'194
                         'fj_restart_obj':      462                136  12'279'007           0              0          0     11'808'872     22'875'998
                     'fj_restart_perturb':      461                115  12'083'062           0              0          0     11'671'481     22'643'905
                 'fj_restart_perturb_obj':      658                120  17'693'215           0              0          0     17'633'824     31'664'102

Solution repositories    Added  Queried  Synchro
    'alternative_path':      0        0        0
      'best_solutions':      0        0        0
   'fj solution hints':  2'014        0    2'014
        'lp solutions':  1'658   11'453    1'657
                'pump':      0        0

Improving bounds shared    Num  Sym
            'default_lp':    4    0

Clauses shared    #Exported  #Imported  #BinaryRead  #BinaryTotal
   'default_lp':      2'937     59'117          313           313
       'max_lp':      2'932     59'095          313           313
        'no_lp':     58'090      5'650          313           313

LRAT_status: NA
CpSolverResponse summary:
status: UNKNOWN
objective: NA
best_bound: NA
integers: 357
booleans: 465
conflicts: 214618
branches: 8386301
propagations: 84662973
integer_propagations: 104909868
restarts: 1332
lp_iterations: 28744178
walltime: 2500.04
usertime: 2500.04
deterministic_time: 12140.7
gap_integral: 0

{
  "board_size": 22,
  "parity_proved": 0,
  "target": 34,
  "child_id": 1252,
  "child_count": 2640,
  "partition": "unknown_pair_x_diag_plus_twos_x_diag_minus_twos",
  "build_seconds": 0.08381485939025879,
  "workers": 4,
  "requested_seed": 2026073352,
  "effective_seed": 2026073352,
  "main_diagonal_pair": [
    3,
    7
  ],
  "pair_index": 60,
  "diag_plus_twos": 16,
  "diag_minus_twos": 16,
  "pair_excess": 10,
  "residual_certificate_slack": 102,
  "analytic_minimum_line_defect": 24,
  "analytic_defect_details": {
    "row_costs": {
      "12": 6,
      "13": 3,
      "14": 0,
      "15": 0,
      "16": 0,
      "17": 0
    },
    "column_costs": {
      "12": 6,
      "13": 3,
      "14": 0,
      "15": 0,
      "16": 0,
      "17": 0
    },
    "plus_cost": 24,
    "minus_cost": 0,
    "row_column_minimum": 0
  },
  "maximal_line_constraints": 2455,
  "analytic_infeasible": false,
  "allowed_points": 242,
  "status": "UNKNOWN",
  "proof_method": "cp_sat_all_lines_with_certificate_profile_cuts",
  "elapsed_seconds": 2500.0411901474,
  "branches": 8386301,
  "conflicts": 214618
}
